(declare-fun temp914_1 () (_ BitVec 64))
(declare-fun var80340 () (_ BitVec 64))
(declare-fun k!0 () Bool)
(declare-fun ARGNAME_dims_self_NAMEEND_LEN () (_ BitVec 64))
(declare-fun ARGNAME_dims_other_NAMEEND_LEN () (_ BitVec 64))
(declare-fun temp914_3 () (_ BitVec 64))
(declare-fun temp914_2 () (_ BitVec 64))
(declare-fun var203926 () (_ BitVec 64))
(declare-fun temp914_4 () (_ BitVec 64))
(declare-fun temp914_5 () (_ BitVec 64))
(declare-fun var272546 () (_ BitVec 64))
(declare-fun var338093 () (_ BitVec 64))
(declare-fun var136036 () (_ BitVec 64))
(declare-fun temp914_6 () (_ BitVec 64))
(declare-fun var80413 () (_ BitVec 64))
(declare-fun var80394 () (_ BitVec 64))
(declare-fun var80393 () (_ BitVec 64))
(declare-fun temp914_7 () (_ BitVec 64))
(declare-fun ARGNAME_input_NAMEEND_DIM () (_ BitVec 64))
(declare-fun var1187199 () (_ BitVec 64))
(declare-fun temp914_8 () (_ BitVec 64))
(declare-fun temp914_10 () (_ BitVec 64))
(declare-fun temp914_9 () (_ BitVec 64))
(declare-fun temp914_12 () (_ BitVec 64))
(declare-fun temp914_11 () (_ BitVec 64))
(declare-fun temp914_13 () (_ BitVec 64))
(declare-fun var1779874 () (_ BitVec 64))
(declare-fun var1845421 () (_ BitVec 64))
(declare-fun temp914_14 () (_ BitVec 64))
(declare-fun var2630727 () (_ BitVec 64))
(declare-fun temp914_15 () (_ BitVec 64))
(declare-fun ARGNAME_other_NAMEEND_DIM () (_ BitVec 64))
(declare-fun var3022207 () (_ BitVec 64))
(declare-fun temp914_16 () (_ BitVec 64))
(declare-fun temp914_18 () (_ BitVec 64))
(declare-fun temp914_17 () (_ BitVec 64))
(declare-fun temp914_20 () (_ BitVec 64))
(declare-fun temp914_19 () (_ BitVec 64))
(declare-fun temp914_21 () (_ BitVec 64))
(declare-fun var3614882 () (_ BitVec 64))
(declare-fun var3680429 () (_ BitVec 64))
(declare-fun temp914_22 () (_ BitVec 64))
(declare-fun var4465735 () (_ BitVec 64))
(declare-fun var80583 () (_ BitVec 64))
(declare-fun var80585 () (_ BitVec 64))
(declare-fun temp914_24 () (_ BitVec 64))
(declare-fun temp914_23 () (_ BitVec 64))
(declare-fun var5772276 () (_ BitVec 64))
(declare-fun temp914_25 () (_ BitVec 64))
(declare-fun temp914_26 () (_ BitVec 64))
(declare-fun var5841941 () (_ BitVec 64))
(declare-fun var5907488 () (_ BitVec 64))
(declare-fun var5709342 () (_ BitVec 64))
(declare-fun temp914_27 () (_ BitVec 64))
(declare-fun var80615 () (_ BitVec 64))
(declare-fun temp914_29 () (_ BitVec 64))
(declare-fun temp914_28 () (_ BitVec 64))
(declare-fun var6558708 () (_ BitVec 64))
(declare-fun temp914_30 () (_ BitVec 64))
(declare-fun temp914_31 () (_ BitVec 64))
(declare-fun var6628373 () (_ BitVec 64))
(declare-fun var6693920 () (_ BitVec 64))
(declare-fun var6495774 () (_ BitVec 64))
(declare-fun temp914_32 () (_ BitVec 64))
(declare-fun var80775 () (_ BitVec 64))
(declare-fun temp914_33 () (_ BitVec 64))
(declare-fun var7676381 () (_ BitVec 64))
(declare-fun var7676393 () (_ BitVec 64))
(assert (= var80340
   (ite (= ARGNAME_dims_self_NAMEEND_LEN ARGNAME_dims_other_NAMEEND_LEN)
        #x0000000000000001
        #x0000000000000000)))
(assert (= temp914_1 #x0000000000000001))
(assert (= var80340 temp914_1))
(assert (= temp914_3 #x0000000000000000))
(assert (= temp914_2 temp914_3))
(assert (= var203926
   (ite (bvslt temp914_2 ARGNAME_dims_self_NAMEEND_LEN)
        #x0000000000000001
        #x0000000000000000)))
(assert (= temp914_4
   (ite (= var203926 #x0000000000000001)
        ARGNAME_dims_self_NAMEEND_LEN
        temp914_2)))
(assert (= temp914_5 #x0000000000000000))
(assert (= var272546 temp914_5))
(assert (= var338093 var272546))
(assert (= var136036 var338093))
(assert (= temp914_6 #x0000000000000001))
(assert (= var80413 temp914_6))
(assert (= var80394 var80413))
(assert (= var80393 var80394))
(assert (= temp914_7 #x0000000000000040))
(assert (= var1187199
   (ite (bvsgt ARGNAME_input_NAMEEND_DIM temp914_7)
        #x0000000000000001
        #x0000000000000000)))
(assert (= temp914_8 #x0000000000000000))
(assert (= var1187199 temp914_8))
(assert (= temp914_10 #x0000000000000000))
(assert (= temp914_9 temp914_10))
(assert (= temp914_12 #x0000000000000000))
(assert (= temp914_11 temp914_12))
(assert (= temp914_13 #x0000000000000000))
(assert (= var1779874 temp914_13))
(assert (= var1845421 var1779874))
(assert (= temp914_14 #x0000000000000001))
(assert (= var2630727 temp914_14))
(assert (= temp914_15 #x0000000000000040))
(assert (= var3022207
   (ite (bvsgt ARGNAME_other_NAMEEND_DIM temp914_15)
        #x0000000000000001
        #x0000000000000000)))
(assert (= temp914_16 #x0000000000000000))
(assert (= var3022207 temp914_16))
(assert (= temp914_18 #x0000000000000000))
(assert (= temp914_17 temp914_18))
(assert (= temp914_20 #x0000000000000000))
(assert (= temp914_19 temp914_20))
(assert (= temp914_21 #x0000000000000000))
(assert (= var3614882 temp914_21))
(assert (= var3680429 var3614882))
(assert (= temp914_22 #x0000000000000001))
(assert (= var4465735 temp914_22))
(assert (= var80583 (bvadd ARGNAME_other_NAMEEND_DIM ARGNAME_input_NAMEEND_DIM)))
(assert (= var80585 (bvsub var80583 ARGNAME_dims_self_NAMEEND_LEN)))
(assert (= temp914_24 #x0000000000000000))
(assert (= temp914_23 temp914_24))
(assert (= var5772276
   (ite (bvslt temp914_23 ARGNAME_input_NAMEEND_DIM)
        #x0000000000000001
        #x0000000000000000)))
(assert (= temp914_25
   (ite (= var5772276 #x0000000000000001) ARGNAME_input_NAMEEND_DIM temp914_23)))
(assert (= temp914_26 #x0000000000000000))
(assert (= var5841941 temp914_26))
(assert (= var5907488 var5841941))
(assert (= var5709342 var5907488))
(assert (= temp914_27 #x0000000000000001))
(assert (= var80615 temp914_27))
(assert (= temp914_29 #x0000000000000000))
(assert (= temp914_28 temp914_29))
(assert (= var6558708
   (ite (bvslt temp914_28 ARGNAME_other_NAMEEND_DIM)
        #x0000000000000001
        #x0000000000000000)))
(assert (= temp914_30
   (ite (= var6558708 #x0000000000000001) ARGNAME_other_NAMEEND_DIM temp914_28)))
(assert (= temp914_31 #x0000000000000000))
(assert (= var6628373 temp914_31))
(assert (= var6693920 var6628373))
(assert (= var6495774 var6693920))
(assert (= temp914_32 #x0000000000000001))
(assert (= var80775 temp914_32))
(assert (= temp914_33 #x0000000000000001))
(assert (= var7676381 temp914_33))
(assert (= var7676393 var7676381))
(model-add temp914_1 () (_ BitVec 64) #x0000000000000001)
(model-add var80340 () (_ BitVec 64) #x0000000000000001)
(model-del k!0)
(model-add ARGNAME_dims_self_NAMEEND_LEN
           ()
           (_ BitVec 64)
           (ite k!0
                ARGNAME_dims_other_NAMEEND_LEN
                (bvnot ARGNAME_dims_other_NAMEEND_LEN)))




